# avogadro generated ORCA input file 
# Basic Mode
# 
!B3LYP DEF2-SVP

%PAL NPROCS 3 END

* xyz 1 1
   H        8.38977        0.77472        1.10960
   H        7.76397        5.48685        2.53346
   H        5.35271        1.38487        2.39952
   H        4.00664        2.08525       -1.58198
   H        4.22334        0.38948       -1.01422
   H        9.94132        1.79200        2.73357
   H        6.20195        4.49307        0.90667
   H       -2.24570       -7.71310        2.44673
   H        9.63439        4.14442        3.45101
   H       -5.70133       -2.43534        3.24156
   H       -6.30423       -3.84132        4.19523
   H       -1.32865       -6.60566        1.35944
   H        3.22321        0.31358        2.98116
   H       -5.18047       -2.66479        4.97167
   H       -0.80408       -6.84082        3.08774
   H       -3.51513       -1.36633        3.68388
   H        1.58897       -2.35452        2.90605
   H        1.82475        1.03768       -1.06769
   H        0.53926        1.53968        1.73719
   H        6.55142        0.90635       -0.37508
   H        6.27787        2.54756       -1.03955
   H        2.15473        2.44259        0.01323
   H        2.58974       -0.53701        0.70327
   H       -0.07409       -4.64955        2.20384
   H        0.93660       -2.11448        1.22265
   H        2.96900        2.00998        2.42366
   H        5.02400       -0.01970        1.32281
   H        0.17995        0.19690        0.59640
   H        1.09249       -0.14346        3.54310
   O       -1.51955        0.62601        3.38487
   O       -2.49730       -5.72602        2.79353
   O       -4.36409       -3.94588        3.59730
   N        4.82256        1.89704        0.38587
   H        4.52608        2.86837        0.64358
   C        2.30089        0.49635        0.99633
   C        0.82166        0.50141        1.45349
   C        0.51831       -0.43851        2.63968
   C        2.46548        1.40336       -0.23581
   C        3.25947        0.98605        2.09943
   C        3.93055        1.41652       -0.69517
   C        4.70337        1.01729        1.57494
   C        0.75104       -1.94171        2.30447
   C       -0.92873       -0.38475        3.03655
   C       -0.55045       -2.60625        2.62941
   C       -1.50283       -1.70958        3.03098
   C        6.21977        1.93684       -0.11052
   C       -0.84499       -3.96556        2.53229
   C       -2.79431       -2.10847        3.36809
   C        7.17438        2.55571        0.88860
   C       -2.14645       -4.41470        2.86523
   C       -3.12492       -3.48212        3.28556
   C        7.01078        3.89054        1.29970
   C        8.24098        1.80383        1.41170
   C        7.89562        4.45897        2.22103
   C        9.12313        2.37658        2.33324
   C        8.95037        3.70263        2.73803
   C       -1.67537       -6.76271        2.40304
   C       -5.43089       -3.18027        4.02005
*


